 vasp.5.4.4.18Apr17-6-g9f103f2a35 (build Nov  8 2022 18:58:45) complex
 executed on             LinuxGNU date 2023.06.12  00:32:02

 INCAR:
 POTCAR:    PAW_PBE Fe 06Sep2000
 POTCAR:    PAW_PBE He 05Jan2001
 POTCAR:    PAW_PBE Fe 06Sep2000

 POTCAR:    PAW_PBE Fe 06Sep2000
   VRHFIN =Fe:  d7 s1

   TITEL  = PAW_PBE Fe 06Sep2000
   POMASS =   55.847; ZVAL   =    8.000    mass and valenz
   ENMAX  =  267.882; ENMIN  =  200.911 eV

 POTCAR:    PAW_PBE He 05Jan2001
   VRHFIN =He: 1s

   TITEL  = PAW_PBE He 05Jan2001
   POMASS =    4.000; ZVAL   =    2.000    mass and valenz
   ENMAX  =  478.896; ENMIN  =  359.172 eV

 POTCAR:    PAW_PBE Fe 06Sep2000
   VRHFIN =Fe:  d7 s1

   TITEL  = PAW_PBE Fe 06Sep2000
   POMASS =   55.847; ZVAL   =    8.000    mass and valenz
   ENMAX  =  267.882; ENMIN  =  200.911 eV

 Optimization of the real space projectors (new method)

 maximal supplied QI-value         = 16.25
 optimisation between [QCUT,QGAM] = [ 10.24, 20.48] = [ 29.35,117.42] Ry
 Optimized for a Real-space Cutoff    1.55 Angstroem

   l    n(q)    QCUT    max X(q) W(low)/X(q) W(high)/X(q)  e(spline)
   2      9    10.239    80.901    0.14E-03    0.38E-03    0.21E-06
   2      9    10.239    75.754    0.14E-03    0.38E-03    0.22E-06
   0     10    10.239    58.752    0.62E-04    0.49E-05    0.83E-07
   0     10    10.239    30.679    0.52E-04    0.50E-05    0.76E-07
   1      9    10.239    17.977    0.85E-04    0.98E-04    0.12E-06
   1      9    10.239    13.559    0.69E-04    0.82E-04    0.10E-06
 Optimization of the real space projectors (new method)

[...]

   l    n(q)    QCUT    max X(q) W(low)/X(q) W(high)/X(q)  e(spline)
   0      9     9.919     9.826    0.10E-03    0.49E-03    0.12E-05
   0      9     9.919     6.706    0.12E-03    0.54E-03    0.13E-05
   1      9     9.919     3.196    0.40E-04    0.16E-03    0.63E-06
 Optimization of the real space projectors (new method)

 maximal supplied QI-value         = 16.25
 optimisation between [QCUT,QGAM] = [ 10.24, 20.48] = [ 29.35,117.42] Ry
 Optimized for a Real-space Cutoff    1.55 Angstroem

   l    n(q)    QCUT    max X(q) W(low)/X(q) W(high)/X(q)  e(spline)
   2      9    10.239    80.901    0.14E-03    0.38E-03    0.21E-06
   2      9    10.239    75.754    0.14E-03    0.38E-03    0.22E-06
   0     10    10.239    58.752    0.62E-04    0.49E-05    0.83E-07
   0     10    10.239    30.679    0.52E-04    0.50E-05    0.76E-07
   1      9    10.239    17.977    0.85E-04    0.98E-04    0.12E-06
   1      9    10.239    13.559    0.69E-04    0.82E-04    0.10E-06
  PAW_PBE Fe 06Sep2000                  :
  PAW_PBE He 05Jan2001                  :
  PAW_PBE Fe 06Sep2000                  :

 POSCAR: Fe41 He1
  positions in direct lattice
 exchange correlation table for  LEXCH =        8
   RHO(1)=    0.500       N(1)  =     2000
   RHO(2)=  100.500       N(2)  =     4000

 ion  position               nearest neighbor table
   1  1.000  0.036  0.254-   5 2.34   3 2.43   2 2.47   2 2.47   4 2.68   4 2.68   3 2.77
   2  0.500  0.327  0.264-   3 2.40   3 2.40   6 2.44   4 2.46   1 2.47   1 2.47   4 2.73   5 2.86
                             5 2.86
   3  1.000  0.575  0.276-   2 2.40   2 2.40   5 2.41   1 2.43   7 2.44   4 2.45   4 2.45   1 2.77
                             6 2.80   6 2.80   5 2.86
   4  0.500  0.859  0.285-   3 2.45   3 2.45   2 2.46   5 2.47   5 2.47   6 2.51   8 2.55   1 2.68
                             1 2.68   2 2.73   6 2.88   7 2.91   7 2.91
   5  1.000  0.128  0.299-   1 2.34   3 2.41   7 2.44   9 2.46   6 2.46   6 2.46   4 2.47   4 2.47
                             8 2.82   8 2.82   7 2.84   3 2.86   2 2.86   2 2.86
   6  0.500  0.404  0.311-   2 2.44   7 2.45   7 2.45   8 2.46   5 2.46   5 2.46  10 2.47   4 2.51
                             3 2.80   3 2.80   8 2.83   9 2.84   9 2.84   4 2.88
   7  1.000  0.676  0.323-   3 2.44   5 2.44   8 2.45   8 2.45   6 2.45   6 2.45  11 2.45   9 2.45
                             9 2.84  10 2.84  10 2.84   5 2.84   4 2.91   4 2.91
   8  0.500  0.948  0.335-   7 2.45   7 2.45   9 2.46   9 2.46   6 2.46  10 2.46  12 2.47   4 2.55
                             5 2.82   5 2.82   6 2.83  11 2.83  11 2.83  10 2.84
   9  1.000  0.222  0.347-  11 2.45  13 2.45   7 2.45  10 2.45  10 2.45   5 2.46   8 2.46   8 2.46
                            11 2.83  12 2.83  12 2.83   7 2.84   6 2.84   6 2.84
  10  0.500  0.494  0.359-  12 2.45  11 2.45  11 2.45   9 2.45   9 2.45   8 2.46   6 2.47  14 2.47
                            13 2.82  13 2.82  12 2.83   7 2.84   7 2.84   8 2.84
  11  1.000  0.768  0.370-   9 2.45  13 2.45  10 2.45   7 2.45  10 2.45  12 2.45  12 2.45  15 2.46
                             9 2.83   8 2.83   8 2.83  13 2.84  14 2.85  14 2.85
  12  0.500  0.040  0.382-  10 2.45  14 2.45  11 2.45  11 2.45  13 2.45  13 2.45   8 2.47  16 2.52
                            15 2.82  15 2.82  10 2.83   9 2.83   9 2.83  14 2.85
  13  1.000  0.314  0.394-  17 2.42  15 2.44  11 2.45   9 2.45  12 2.45  12 2.45  14 2.46  14 2.46
                            10 2.82  10 2.82  11 2.84  15 2.85  16 2.88  16 2.88
  14  0.500  0.587  0.406-  12 2.45  15 2.45  15 2.45  13 2.46  13 2.46  10 2.47  16 2.48  18 2.55
                            17 2.78  17 2.78  11 2.85  11 2.85  12 2.85  16 2.86
  15  1.000  0.862  0.418-  19 2.36  17 2.40  13 2.44  14 2.45  14 2.45  11 2.46  16 2.47  16 2.47
                            12 2.82  12 2.82  17 2.84  13 2.85  18 2.95  18 2.95
  16  0.500  0.134  0.431-  17 2.44  17 2.44  15 2.47  15 2.47  14 2.48  12 2.52  18 2.56  19 2.70
                            19 2.70  18 2.78  14 2.86  13 2.88  13 2.88
  17  1.000  0.414  0.441-  19 2.39  15 2.40  13 2.42  18 2.44  18 2.44  16 2.44  16 2.44  21 2.46
                            14 2.78  14 2.78  15 2.84  19 2.85
  18  0.500  0.660  0.456-  17 2.44  17 2.44  19 2.50  19 2.50  14 2.55  16 2.56  21 2.66  21 2.66
                            16 2.78  15 2.95  15 2.95
  19  1.000  0.968  0.463-  15 2.36  17 2.39  21 2.45  18 2.50  18 2.50  22 2.52  16 2.70  16 2.70
                            17 2.85  21 2.88
  20  0.500  0.170  0.488-
  21  1.000  0.521  0.488-  19 2.45  17 2.46  24 2.46  22 2.47  18 2.66  18 2.66  23 2.67  23 2.67
                            22 2.87  19 2.88
  22  0.000  0.973  0.513-  26 2.36  24 2.40  21 2.47  23 2.50  23 2.50  19 2.52  25 2.70  25 2.70
                            24 2.84  21 2.87
  23  0.500  0.665  0.520-  24 2.44  24 2.44  22 2.50  22 2.50  27 2.55  25 2.57  21 2.67  21 2.67
                            25 2.77  26 2.95  26 2.95
  24  0.000  0.420  0.535-  22 2.40  28 2.41  26 2.41  23 2.44  23 2.44  25 2.44  25 2.44  21 2.46
                            27 2.78  27 2.78  26 2.83  22 2.84
  25  0.500  0.140  0.545-  24 2.44  24 2.44  26 2.46  26 2.46  27 2.48  29 2.51  23 2.57  22 2.70
                            22 2.70  23 2.77  27 2.85  28 2.88  28 2.88
  26  0.000  0.870  0.558-  22 2.36  24 2.41  27 2.45  27 2.45  28 2.45  30 2.46  25 2.46  25 2.46
                            29 2.83  29 2.83  24 2.83  28 2.84  23 2.95  23 2.95
  27  0.500  0.596  0.569-  26 2.45  26 2.45  28 2.46  28 2.46  29 2.46  31 2.47  25 2.48  23 2.55
                            24 2.78  24 2.78  29 2.84  25 2.85  30 2.85  30 2.85
  28  0.000  0.324  0.582-  24 2.41  26 2.45  29 2.45  29 2.45  32 2.45  27 2.46  27 2.46  30 2.46
                            31 2.83  31 2.83  30 2.83  26 2.84  25 2.88  25 2.88
  29  0.500  0.050  0.593-  28 2.45  28 2.45  30 2.45  30 2.45  33 2.46  27 2.46  31 2.46  25 2.51
                            26 2.83  26 2.83  31 2.83  27 2.84  32 2.84  32 2.84
  30  0.000  0.779  0.606-  34 2.44  32 2.45  31 2.45  31 2.45  29 2.45  29 2.45  28 2.46  26 2.46
                            33 2.83  33 2.83  32 2.83  28 2.83  27 2.85  27 2.85
  31  0.500  0.506  0.617-  30 2.45  30 2.45  33 2.45  32 2.45  32 2.45  29 2.46  35 2.46  27 2.47
                            28 2.83  28 2.83  34 2.83  34 2.83  33 2.83  29 2.83
  32  1.000  0.233  0.629-  36 2.45  30 2.45  34 2.45  33 2.45  33 2.45  28 2.45  31 2.45  31 2.45
                            34 2.83  30 2.83  35 2.84  35 2.84  29 2.84  29 2.84
  33  0.500  0.960  0.641-  34 2.45  34 2.45  32 2.45  32 2.45  31 2.45  29 2.46  37 2.46  35 2.46
                            30 2.83  30 2.83  31 2.83  36 2.83  36 2.83  35 2.83
  34  1.000  0.688  0.653-  30 2.44  33 2.45  33 2.45  32 2.45  36 2.45  35 2.45  35 2.45  38 2.46
                            32 2.83  31 2.83  31 2.83  36 2.83  37 2.84  37 2.84
  35  0.500  0.416  0.665-  36 2.45  36 2.45  34 2.45  34 2.45  37 2.46  33 2.46  31 2.46  39 2.55
                            38 2.82  38 2.82  37 2.83  33 2.83  32 2.84  32 2.84
  36  1.000  0.142  0.676-  40 2.44  38 2.44  32 2.45  35 2.45  35 2.45  37 2.45  37 2.45  34 2.45
                            33 2.83  33 2.83  34 2.83  38 2.84  39 2.91  39 2.91
  37  0.500  0.871  0.688-  41 2.44  36 2.45  36 2.45  35 2.46  38 2.46  38 2.46  33 2.46  39 2.51
                            40 2.80  40 2.80  35 2.83  34 2.84  34 2.84  39 2.88
  38  1.000  0.595  0.700-  42 2.34  40 2.41  36 2.44  34 2.46  37 2.46  37 2.46  39 2.47  39 2.47
                            35 2.82  35 2.82  36 2.84  40 2.85  41 2.86  41 2.86
  39  0.500  0.326  0.714-  40 2.45  40 2.45  41 2.46  38 2.47  38 2.47  37 2.51  35 2.55  42 2.68
                            42 2.68  41 2.73  37 2.88  36 2.91  36 2.91
  40  1.000  0.042  0.723-  41 2.40  41 2.40  38 2.41  42 2.43  36 2.44  39 2.45  39 2.45  42 2.76
                            37 2.80  37 2.80  38 2.85
  41  0.500  0.794  0.736-  40 2.40  40 2.40  37 2.44  39 2.46  42 2.47  42 2.47  39 2.73  38 2.86
                            38 2.86
  42  1.000  0.503  0.745-  38 2.34  40 2.43  41 2.47  41 2.47  39 2.68  39 2.68  40 2.76

  LATTYP: Found a simple orthorhombic cell.
 ALAT       =     4.0048390000
 B/A-ratio  =     1.1726039424
 C/A-ratio  =    12.7279223959

  Lattice vectors:

 A1 = (   4.0048390000,   0.0000000000,   0.0000000000)
 A2 = (   0.0000000000,   4.6960900000,   0.0000000000)
 A3 = (   0.0000000000,   0.0000000000,  50.9732800000)

Analysis of symmetry for initial positions (statically):
 Subroutine PRICEL returns:
 Original cell was already a primitive cell.

 Routine SETGRP: Setting up the symmetry group for a
 simple orthorhombic supercell.

 Subroutine GETGRP returns: Found  1 space group operations
 (whereof  1 operations were pure point group operations)
 out of a pool of  8 trial point group operations.

The static configuration has the point symmetry C_1 .

Analysis of symmetry for dynamics (positions and initial velocities):
 Subroutine PRICEL returns:
 Original cell was already a primitive cell.

[...]

The dynamic configuration has the point symmetry C_1 .

Analysis of structural, dynamic, and magnetic symmetry:
 Subroutine PRICEL returns:
 Original cell was already a primitive cell.

 Routine SETGRP: Setting up the symmetry group for a
 simple orthorhombic supercell.

 Subroutine GETGRP returns: Found  1 space group operations
 (whereof  1 operations were pure point group operations)
 out of a pool of  8 trial point group operations.

The magnetic configuration has the point symmetry C_1 .

[...]
     40      -1.4598      1.00000
     41      -1.4538      1.00000
     42      -1.4504      1.00000
     43      -1.0337      1.00000
     44      -1.0013      1.00000
     45      -0.9463      1.00000
     46      -0.9014      1.00000
     47      -0.7853      1.00000
     48      -0.7568      1.00000
     49      -0.7358      1.00000
     50      -0.7347      1.00000
     51      -0.7296      1.00000
     52      -0.6967      1.00000
     53      -0.6900      1.00000
     54      -0.6831      1.00000
     55      -0.6661      1.00000
     56      -0.6493      1.00000
     57      -0.6197      1.00000
     58      -0.5940      1.00000
     59      -0.5856      1.00000
     60      -0.5684      1.00000
[...]
    242       4.5118     -0.00000
    243       4.8742     -0.00000
    244       4.9674     -0.00000
    245       5.1661     -0.00000
    246       5.4594     -0.00000
    247       5.6288     -0.00000
    248       5.7328     -0.00000
    249       6.1467     -0.00000
    250       6.2859     -0.00000
    251       6.7006      0.00000
    252       6.7209      0.00000
    253       7.9269      0.00000
    254       7.9617      0.00000
    255       8.2981      0.00000
    256       8.4174      0.00000

 soft charge-density along one line, spin component           1
         0         1         2         3         4         5         6         7         8         9
 total charge-density along one line

 soft charge-density along one line, spin component           2
         0         1         2         3         4         5         6         7         8         9
 total charge-density along one line

------------------------ aborting loop because EDIFF is reached ----------------------------------------

 total charge

# of ion       s       p       d       tot
    1        0.473   0.300   6.201   6.975
    2        0.479   0.388   6.236   7.102
    3        0.498   0.482   6.259   7.239
    4        0.471   0.493   6.200   7.165
    5        0.490   0.540   6.269   7.299
    6        0.482   0.529   6.243   7.254
    7        0.486   0.533   6.251   7.270
    8        0.479   0.531   6.231   7.240
    9        0.486   0.539   6.239   7.264
   10        0.484   0.538   6.237   7.259
   11        0.486   0.539   6.239   7.264
   12        0.480   0.534   6.233   7.247
   13        0.488   0.537   6.245   7.271
   14        0.478   0.527   6.232   7.237
   15        0.491   0.534   6.263   7.288
   16        0.475   0.492   6.189   7.157
   17        0.511   0.536   6.288   7.335
   18        0.460   0.431   6.169   7.059
   19        0.492   0.425   6.210   7.127
   20        1.415   0.008   0.000   1.422
   21        0.479   0.397   6.167   7.044
   22        0.492   0.422   6.210   7.123
   23        0.459   0.430   6.169   7.057
   24        0.511   0.537   6.288   7.336
   25        0.475   0.493   6.190   7.158
   26        0.492   0.534   6.263   7.289
   27        0.479   0.526   6.232   7.237
   28        0.489   0.537   6.246   7.271
   29        0.481   0.535   6.235   7.251
   30        0.487   0.540   6.241   7.268
   31        0.484   0.539   6.238   7.261
   32        0.487   0.541   6.240   7.268
   33        0.486   0.541   6.238   7.264
   34        0.487   0.542   6.242   7.271
   35        0.479   0.532   6.232   7.243
   36        0.486   0.533   6.250   7.270
   37        0.482   0.530   6.245   7.257
   38        0.490   0.541   6.267   7.298
   39        0.471   0.493   6.200   7.165
   40        0.498   0.482   6.258   7.238
   41        0.480   0.390   6.237   7.106
   42        0.474   0.300   6.204   6.978
tot         21.253  20.349 255.526 297.128

 magnetization (x)

[...]

  FORCE on cell =-STRESS in cart. coord.  units (eV):
  Direction    XX          YY          ZZ          XY          YZ          ZX
  Alpha Z  1220.95572  1220.95572  1220.95572
  Ewald  513301.23327513273.05368************    -0.00877    -6.08137    -0.00215
  Hartree519969.86289519954.05693************    -0.00239    -2.34369    -0.00021
  E(xc)   -1637.58730 -1637.31102 -1637.43495     0.00004     0.04820     0.00001
  Local  ************************************     0.00993     8.12432     0.00187
  n-local -1089.49537 -1088.78762 -1093.44734    -0.00018    -0.01579     0.00013
  augment  1591.59781  1589.98580  1589.00599     0.00032    -0.01987     0.00002
  Kinetic  3007.97026  3004.84772  3012.35244     0.00064    -0.02303     0.00038
  Fock        0.00000     0.00000     0.00000     0.00000     0.00000     0.00000
  Total      -2.72942    -6.50200    -2.10622    -0.00040    -0.31124     0.00005
  in kB      -4.56160   -10.86659    -3.52006    -0.00067    -0.52017     0.00008

 VOLUME and BASIS-vectors are now :
  energy-cutoff  :      400.00
  volume of cell :      958.66
      direct lattice vectors                 reciprocal lattice vectors
     4.004839000  0.000000000  0.000000000     0.249697928  0.000000000  0.000000000
     0.000000000  4.696090000  0.000000000     0.000000000  0.212943108  0.000000000
     0.000000000  0.000000000 50.973280000     0.000000000  0.000000000  0.019618121

  length of vectors
     4.004839000  4.696090000 50.973280000     0.249697928  0.212943108  0.019618121

 FORCES acting on ions
    electron-ion (+dipol)            ewald-force                    non-local-force                 convergence-correction
   0.350E-02 0.408E+02 0.585E+04   -.367E-02 -.393E+02 -.585E+04   0.734E-05 -.139E+01 -.749E+01   0.138E-04 -.107E+00 -.193E+00
   -.641E-02 -.417E+02 0.572E+04   0.656E-02 0.408E+02 -.572E+04   -.261E-03 0.769E+00 -.443E+01   0.447E-04 0.759E-01 -.117E-01
   -.346E-02 -.198E+02 0.545E+04   0.358E-02 0.196E+02 -.545E+04   0.582E-04 0.559E-01 -.110E+01   0.324E-04 0.733E-01 0.108E+00
   0.510E-02 0.194E+02 0.520E+04   -.524E-02 -.194E+02 -.520E+04   0.176E-04 0.863E-01 0.867E-02   -.891E-04 -.658E-01 0.202E+00
   -.314E-03 0.818E+01 0.479E+04   0.315E-03 -.827E+01 -.479E+04   -.642E-04 0.115E+00 -.871E+00   0.465E-04 -.176E-01 0.292E+00
   0.432E-02 -.550E+01 0.450E+04   -.431E-02 0.551E+01 -.450E+04   -.136E-03 -.250E-01 -.388E+00   0.132E-04 0.115E-01 0.177E+00
   -.525E-02 -.373E+01 0.419E+04   0.529E-02 0.369E+01 -.419E+04   0.387E-04 0.427E-01 -.412E+00   -.377E-04 0.670E-02 0.110E+00
   0.722E-02 0.222E+01 0.389E+04   -.740E-02 -.215E+01 -.389E+04   -.948E-05 -.563E-01 -.133E+00   -.706E-05 -.249E-03 0.784E-01
   -.123E-01 0.871E+00 0.357E+04   0.126E-01 -.929E+00 -.357E+04   0.200E-03 0.615E-01 -.636E-01   0.433E-04 0.168E-02 0.127E+00
   0.117E-01 -.402E+00 0.325E+04   -.119E-01 0.453E+00 -.325E+04   -.219E-03 -.382E-01 -.418E-01   -.103E-04 -.883E-02 0.140E+00
   -.218E-02 -.859E+00 0.294E+04   0.218E-02 0.909E+00 -.294E+04   -.199E-05 -.448E-01 0.786E-01   -.201E-04 -.513E-03 0.146E+00
   -.204E-02 -.107E+01 0.262E+04   0.219E-02 0.941E+00 -.262E+04   -.406E-04 0.125E+00 0.148E+00   -.447E-04 0.388E-02 0.115E+00
   -.308E-02 0.301E+01 0.232E+04   0.307E-02 -.294E+01 -.232E+04   0.141E-04 -.750E-01 0.347E+00   0.809E-04 0.875E-02 0.251E-01
   0.364E-02 -.130E+01 0.199E+04   -.371E-02 0.123E+01 -.199E+04   0.280E-04 0.573E-01 0.171E-01   -.330E-04 0.184E-01 -.311E-01
   0.286E-02 -.498E+01 0.171E+04   -.299E-02 0.517E+01 -.171E+04   0.894E-04 -.156E+00 0.776E+00   0.470E-04 -.326E-01 -.139E+00
   -.884E-02 -.720E+00 0.132E+04   0.913E-02 0.840E+00 -.132E+04   0.457E-04 -.111E+00 0.186E+00   -.915E-04 -.266E-02 -.331E-01
   0.657E-02 0.188E+02 0.112E+04   -.667E-02 -.191E+02 -.112E+04   0.151E-03 0.409E+00 -.434E+00   0.193E-05 -.363E-01 -.965E-01
   -.117E-01 0.932E+01 0.748E+03   0.115E-01 -.913E+01 -.749E+03   0.246E-03 -.187E+00 0.163E+01   0.573E-04 -.745E-02 -.703E-02
   0.104E-01 -.618E+02 0.616E+03   -.958E-02 0.607E+02 -.618E+03   -.989E-03 0.100E+01 0.175E+01   0.647E-04 0.165E+00 0.371E-01
   0.121E-02 -.249E+01 0.760E+02   -.129E-02 0.257E+01 -.760E+02   0.595E-04 -.817E-01 0.198E-01   0.944E-05 0.204E-02 -.952E-02
   0.830E-03 0.812E+02 0.303E+03   -.820E-03 -.790E+02 -.303E+03   0.513E-05 -.201E+01 -.201E-01   -.883E-04 -.207E+00 -.428E-01
   -.597E-02 -.610E+02 -.786E+01   0.541E-02 0.599E+02 0.965E+01   0.596E-03 0.101E+01 -.171E+01   -.140E-03 0.152E+00 -.879E-01
   0.833E-02 0.849E+01 -.138E+03   -.829E-02 -.837E+01 0.140E+03   -.239E-03 -.128E+00 -.160E+01   0.789E-04 0.611E-02 -.257E-01
   -.367E-02 0.183E+02 -.509E+03   0.379E-02 -.187E+02 0.508E+03   -.125E-03 0.415E+00 0.454E+00   -.182E-04 -.286E-01 0.711E-01
   0.110E-02 -.447E+00 -.707E+03   -.120E-02 0.554E+00 0.708E+03   -.481E-05 -.848E-01 -.275E+00   0.477E-04 -.201E-01 0.856E-02
   -.461E-03 -.481E+01 -.110E+04   0.488E-03 0.500E+01 0.110E+04   -.550E-04 -.172E+00 -.804E+00   0.942E-05 -.273E-01 0.102E+00
   0.182E-02 -.116E+01 -.138E+04   -.181E-02 0.108E+01 0.138E+04   0.221E-04 0.543E-01 -.486E-02   -.684E-04 0.253E-01 -.236E-01
   -.259E-02 0.267E+01 -.172E+04   0.257E-02 -.256E+01 0.172E+04   0.723E-04 -.119E+00 -.290E+00   0.432E-04 0.281E-02 -.844E-01
   0.803E-05 -.144E+01 -.201E+04   -.253E-05 0.134E+01 0.201E+04   0.248E-04 0.953E-01 -.756E-01   0.431E-04 0.261E-02 -.192E+00
   -.174E-02 0.203E+00 -.234E+04   0.177E-02 -.194E+00 0.234E+04   0.154E-04 -.113E-01 -.113E+00   0.300E-05 0.108E-02 -.224E+00
   0.453E-02 0.128E+01 -.265E+04   -.461E-02 -.131E+01 0.265E+04   -.417E-04 0.255E-01 -.565E-01   -.728E-04 -.230E-02 -.232E+00
   -.240E-02 -.976E+00 -.296E+04   0.252E-02 0.963E+00 0.296E+04   0.317E-04 0.762E-02 -.634E-01   -.227E-04 0.353E-02 -.205E+00
   -.154E-02 -.156E+01 -.328E+04   0.152E-02 0.159E+01 0.328E+04   0.142E-04 -.257E-01 0.433E-01   0.692E-04 -.128E-02 -.129E+00
   0.384E-02 0.134E+01 -.359E+04   -.396E-02 -.138E+01 0.359E+04   -.150E-05 0.404E-01 0.740E-01   -.621E-05 -.436E-02 -.575E-01
   -.545E-02 0.339E+01 -.392E+04   0.561E-02 -.331E+01 0.392E+04   0.955E-04 -.764E-01 0.132E+00   0.211E-05 -.761E-02 0.262E-01
   0.295E-02 -.385E+01 -.422E+04   -.302E-02 0.380E+01 0.422E+04   -.122E-03 0.428E-01 0.422E+00   -.213E-04 0.107E-01 0.113E-01
   -.370E-03 -.612E+01 -.453E+04   0.342E-03 0.612E+01 0.453E+04   0.719E-05 -.258E-01 0.383E+00   -.916E-05 0.194E-01 -.677E-01
   -.661E-04 0.832E+01 -.481E+04   0.122E-03 -.841E+01 0.481E+04   0.231E-04 0.118E+00 0.858E+00   0.126E-04 -.196E-01 -.229E+00
   -.364E-03 0.195E+02 -.523E+04   0.343E-03 -.195E+02 0.523E+04   0.259E-04 0.105E+00 -.214E-01   -.305E-04 -.701E-01 -.171E+00
   0.166E-02 -.202E+02 -.548E+04   -.171E-02 0.201E+02 0.547E+04   -.558E-06 0.684E-01 0.110E+01   0.275E-04 0.767E-01 -.102E+00
   -.359E-02 -.416E+02 -.574E+04   0.370E-02 0.407E+02 0.574E+04   0.408E-04 0.746E+00 0.437E+01   -.437E-04 0.793E-01 0.109E-01
   0.233E-02 0.411E+02 -.588E+04   -.243E-02 -.396E+02 0.587E+04   -.582E-04 -.141E+01 0.751E+01   0.825E-04 -.110E+00 0.188E+00
   0.503E-04 0.813E+00 0.536E+00   -.246E-12 0.568E-13 -.455E-11   -.441E-03 -.782E+00 -.107E+00   0.202E-04 -.295E-01 -.421E+00

 POSITION                                       TOTAL-FORCE (eV/Angst)
      4.00463      0.16726     12.96058        -0.000133      0.002931      0.003263
      2.00217      1.53727     13.43903        -0.000057     -0.002709      0.005892
      4.00460      2.70062     14.07448         0.000216     -0.006536      0.001241
      2.00223      4.03613     14.54371        -0.000210     -0.001192      0.002722
      4.00466      0.60187     15.26139        -0.000008      0.002683     -0.002177
      2.00224      1.89821     15.85637        -0.000109     -0.002296      0.000804
      4.00466      3.17295     16.46777         0.000055      0.005622      0.000739
      2.00225      4.45287     17.06253        -0.000189      0.003816      0.006611
      4.00463      1.04060     17.67809         0.000550      0.005124     -0.000913
      2.00227      2.32091     18.28677        -0.000473      0.004251     -0.002711
      4.00467      3.60475     18.88124        -0.000019      0.004527     -0.000186
      2.00222      0.18688     19.49327         0.000078      0.001655     -0.001733
      4.00465      1.47435     20.08827         0.000089      0.002265     -0.000111
      2.00226      2.75693     20.71644        -0.000063      0.002596      0.002074
      4.00467      4.04876     21.30257         0.000016     -0.001772      0.002918
      2.00223      0.62702     21.97825         0.000253      0.005752     -0.000712
      4.00468      1.94310     22.45967         0.000060      0.005632      0.000225
      2.00227      3.10011     23.24438         0.000139     -0.000622      0.002460
      4.00469      4.54795     23.61307        -0.000129     -0.002802      0.000545
      2.00242      0.79993     24.87648        -0.000008      0.001863     -0.001450
      4.00483      2.44685     24.87064        -0.000064      0.005767     -0.002409
      0.00010      4.56722     26.13117        -0.000091     -0.004380     -0.003324
      2.00250      3.12360     26.49699        -0.000110     -0.002624     -0.000874
      0.00006      1.97023     27.28729        -0.000014      0.000166     -0.000379
      2.00248      0.65789     27.77006        -0.000044      0.001599     -0.001625
      0.00004      4.08379     28.44258        -0.000010     -0.003946     -0.000187
      2.00245      2.79870     29.02572        -0.000033      0.000152      0.001251
      0.00001      1.51964     29.65194         0.000100     -0.004788      0.000884
      2.00242      0.23632     30.24596         0.000082     -0.003170      0.001936
      0.00000      3.65664     30.86497         0.000053     -0.001110      0.002322
      2.00243      2.37417     31.45970        -0.000192     -0.005460      0.001612
      4.00482      1.09381     32.06782         0.000142     -0.002846      0.001835
      2.00240      4.50903     32.66668         0.000075     -0.002132     -0.002214
      4.00483      3.23048     33.26886        -0.000128     -0.004141     -0.000678
      2.00238      1.95133     33.88585         0.000269     -0.001846     -0.009078
      4.00482      0.66844     34.47734        -0.000200     -0.000426     -0.002416
      2.00240      4.09008     35.09167        -0.000021     -0.007932      0.000243
      4.00481      2.79358     35.68519         0.000100      0.003179      0.001916
      2.00240      1.53151     36.40328        -0.000017     -0.000195     -0.000632
      4.00482      0.19793     36.87364        -0.000015     -0.002663      0.000473
      2.00239      3.72974     37.50315         0.000122      0.000940     -0.005454
      4.00483      2.36366     37.98408        -0.000061      0.005068     -0.002705
    total drift:                               -0.000371      0.001502      0.008144

  FREE ENERGIE OF THE ION-ELECTRON SYSTEM (eV)
  free  energy   TOTEN  =      -326.55543437 eV

  energy  without entropy=     -326.52973272  energy(sigma->0) =     -326.54686716

 writing wavefunctions

 total charge

[...]

 magnetization (x)

# of ion       s       p       d       tot
    1        0.008   0.004   2.851   2.863
    2        0.002  -0.003   2.642   2.641
    3       -0.012  -0.036   2.419   2.372
    4       -0.012  -0.052   2.559   2.496
    5       -0.016  -0.057   2.339   2.265
    6       -0.014  -0.058   2.386   2.314
    7       -0.015  -0.058   2.302   2.230
    8       -0.015  -0.061   2.350   2.275
    9       -0.014  -0.059   2.270   2.197
   10       -0.015  -0.059   2.267   2.193
   11       -0.014  -0.059   2.296   2.223
   12       -0.016  -0.060   2.325   2.249
   13       -0.014  -0.056   2.271   2.201
   14       -0.015  -0.057   2.325   2.253
   15       -0.013  -0.049   2.263   2.201
   16       -0.012  -0.054   2.571   2.506
   17       -0.020  -0.057   2.075   1.998
   18       -0.011  -0.040   2.683   2.632
   19       -0.010  -0.030   2.571   2.531
   20        0.002  -0.000   0.000   0.002
   21       -0.010  -0.031   2.663   2.621
   22       -0.010  -0.030   2.579   2.540
   23       -0.012  -0.039   2.691   2.640
   24       -0.021  -0.056   2.066   1.989
   25       -0.011  -0.054   2.569   2.503
   26       -0.012  -0.049   2.276   2.214
   27       -0.015  -0.056   2.344   2.273
   28       -0.013  -0.055   2.263   2.194
   29       -0.016  -0.060   2.289   2.213
   30       -0.014  -0.060   2.273   2.199
   31       -0.015  -0.059   2.278   2.203
   32       -0.014  -0.059   2.276   2.203
   33       -0.015  -0.059   2.278   2.204
   34       -0.014  -0.060   2.248   2.174
   35       -0.016  -0.061   2.343   2.267
   36       -0.014  -0.058   2.309   2.236
   37       -0.014  -0.058   2.381   2.310
   38       -0.016  -0.057   2.331   2.258
   39       -0.012  -0.052   2.559   2.495
   40       -0.011  -0.036   2.420   2.373
   41        0.001  -0.004   2.637   2.634
   42        0.008   0.003   2.843   2.854
tot         -0.492  -1.948  98.680  96.241